Problem:    
Rows:       260
Columns:    89 (72 integer, 72 binary)
Non-zeros:  936
Status:     INTEGER OPTIMAL
Objective:  value = 92.194429 (MINimum)

   No.   Row name        Activity     Lower bound   Upper bound
------ ------------    ------------- ------------- -------------
     1 r.5                   92.1944             0               
     2 r.6                   47.4903      -994.823               
     3 r.7                   1116.19             0               
     4 r.8                   -976.51      -982.955               
     5 r.9                   1116.19             0               
     6 r.10                 -968.442       -994.89               
     7 r.11                  92.1944             0               
     8 r.12                   0.9492      -983.371               
     9 r.13                  1116.19             0               
    10 r.14                 -997.551      -1022.92               
    11 r.15                  92.1944             0               
    12 r.16                  47.4903      -1018.79               
    13 r.17                  1116.19             0               
    14 r.18                 -998.629      -1021.54               
    15 r.19                  92.1944             0               
    16 r.20                   0.9492      -1016.07               
    17 r.21                  1116.19             0               
    18 r.22                 -1008.91      -1009.86               
    19 r.23                  92.1944             0               
    20 r.24                   0.9492      -1003.07               
    21 r.25                  1116.19             0               
    22 r.26                 -1023.05      -1023.05               
    23 r.27                  92.1944             0               
    24 r.28                   0.9492      -1021.27               
    25 r.29                  1116.19             0               
    26 r.30                 -931.806      -987.364               
    27 r.31                  92.1944             0               
    28 r.32                  92.1944      -989.648               
    29 r.33                  92.1944             0               
    30 r.34                  92.1944       -953.09               
    31 r.35                  1116.19             0               
    32 r.36                 -931.806      -979.296               
    33 r.37                        1             1             = 
    34 r.38                        1             1             = 
    35 r.39                        1             1             = 
    36 r.40                        1             1             = 
    37 r.41                        1             1             = 
    38 r.42                        1             1             = 
    39 r.43                        1             1             = 
    40 r.44                        1             1             = 
    41 r.45                     1025             2               
    42 r.46                    -1025         -1025               
    43 r.47                  2056.07       -994.89               
    44 r.48                     1025             2               
    45 r.49                    -1025         -1025               
    46 r.50                  2001.46      -983.371               
    47 r.51                     1025             2               
    48 r.52                    -1025         -1025               
    49 r.53                  2026.96      -1022.92               
    50 r.54                     1025             2               
    51 r.55                    -1025         -1025               
    52 r.56                     2048      -1018.79               
    53 r.57                     1025             2               
    54 r.58                    -1025         -1025               
    55 r.59                  2025.88      -1021.54               
    56 r.60                     1025             2               
    57 r.61                    -1025         -1025               
    58 r.62                  2001.46      -1016.07               
    59 r.63                     1025             2               
    60 r.64                    -1025         -1025               
    61 r.65                   2015.6      -1009.86               
    62 r.66                     1025             2               
    63 r.67                    -1025         -1025               
    64 r.68                  2001.46      -1003.07               
    65 r.69                  46.5411             0               
    66 r.70                  5.49573             0               
    67 r.71                  46.5411             0               
    68 r.72                  5.49573             0               
    69 r.73                 -979.296      -987.364               
    70 r.74                  44.7041      -989.648               
    71 r.75                 -979.296      -987.364               
    72 r.76                  44.7041      -989.648               
    73 r.77                  44.7041       -953.09               
    74 r.78                 -979.296      -979.296               
    75 r.79                  44.7041       -953.09               
    76 r.80                 -979.296      -979.296               
    77 r.81                     1025             2               
    78 r.82                    -1025         -1025               
    79 r.83                  2039.93       29.1772               
    80 r.84                     1025             2               
    81 r.85                    -1025         -1025               
    82 r.86                  2094.54       41.0454               
    83 r.87                        2             2               
    84 r.88                       -2         -1025               
    85 r.89                 -29.1099      -1022.92               
    86 r.90                     1024             2               
    87 r.91                    -1024         -1025               
    88 r.92                  2094.54      -1018.79               
    89 r.93                        2             2               
    90 r.94                       -2         -1025               
    91 r.95                 -30.1872      -1021.54               
    92 r.96                     1024             2               
    93 r.97                    -1024         -1025               
    94 r.98                     2048      -1016.07               
    95 r.99                        2             2               
    96 r.100                      -2         -1025               
    97 r.101                -40.4723      -1009.86               
    98 r.102                    1024             2               
    99 r.103                   -1024         -1025               
   100 r.104                    2048      -1003.07               
   101 r.105                 25.4993             0               
   102 r.106                       0             0               
   103 r.107                 25.4993             0               
   104 r.108                       0             0               
   105 r.109                -987.364      -987.364               
   106 r.110                  36.636      -989.648               
   107 r.111                -932.755      -987.364               
   108 r.112                 91.2452      -989.648               
   109 r.113                    1025             2               
   110 r.114                   -1025         -1025               
   111 r.115                 2084.64       -953.09               
   112 r.116                    1025             2               
   113 r.117                   -1025         -1025               
   114 r.118                 2139.25      -979.296               
   115 r.119                    1025             2               
   116 r.120                   -1025         -1025               
   117 r.121                 2069.04       29.1772               
   118 r.122                    1025             2               
   119 r.123                   -1025         -1025               
   120 r.124                    2048       41.0454               
   121 r.125                       2             2               
   122 r.126                      -2         -1025               
   123 r.127                 29.1099       29.1099               
   124 r.128                    1024             2               
   125 r.129                   -1024         -1025               
   126 r.130                 2001.46       40.6289               
   127 r.131                       2             2               
   128 r.132                      -2         -1025               
   129 r.133                 -1.0773      -1021.54               
   130 r.134                    1024             2               
   131 r.135                   -1024         -1025               
   132 r.136                 2001.46      -1016.07               
   133 r.137                       2             2               
   134 r.138                      -2         -1025               
   135 r.139                -11.3624      -1009.86               
   136 r.140                    1024             2               
   137 r.141                   -1024         -1025               
   138 r.142                 2001.46      -1003.07               
   139 r.143                  24.422             0               
   140 r.144                 46.5411             0               
   141 r.145                  24.422             0               
   142 r.146                 46.5411             0               
   143 r.147                -958.254      -987.364               
   144 r.148                 65.7459      -989.648               
   145 r.149                -979.296      -987.364               
   146 r.150                 44.7041      -989.648               
   147 r.151                 65.7459       -953.09               
   148 r.152                -958.254      -979.296               
   149 r.153                 44.7041       -953.09               
   150 r.154                -979.296      -979.296               
   151 r.155                    1025             2               
   152 r.156                   -1025         -1025               
   153 r.157                 2070.12       29.1772               
   154 r.158                    1025             2               
   155 r.159                   -1025         -1025               
   156 r.160                 2094.54       41.0454               
   157 r.161                       2             2               
   158 r.162                      -2         -1025               
   159 r.163                 30.1872       29.1099               
   160 r.164                    1024             2               
   161 r.165                   -1024         -1025               
   162 r.166                    2048       40.6289               
   163 r.167                       2             2               
   164 r.168                      -2         -1025               
   165 r.169                  1.0773        1.0773               
   166 r.170                    1024             2               
   167 r.171                   -1024         -1025               
   168 r.172                 2094.54       5.20906               
   169 r.173                       2             2               
   170 r.174                      -2         -1025               
   171 r.175                -10.2851      -1009.86               
   172 r.176                    1024             2               
   173 r.177                   -1024         -1025               
   174 r.178                    2048      -1003.07               
   175 r.179                 21.9627             0               
   176 r.180                       0             0               
   177 r.181                 21.9627             0               
   178 r.182                       0             0               
   179 r.183                -957.177      -987.364               
   180 r.184                 66.8232      -989.648               
   181 r.185                -932.755      -987.364               
   182 r.186                 91.2452      -989.648               
   183 r.187                    1025             2               
   184 r.188                   -1025         -1025               
   185 r.189                 2114.82       -953.09               
   186 r.190                    1025             2               
   187 r.191                   -1025         -1025               
   188 r.192                 2139.25      -979.296               
   189 r.193                    1025             2               
   190 r.194                   -1025         -1025               
   191 r.195                 2072.58       29.1772               
   192 r.196                    1025             2               
   193 r.197                   -1025         -1025               
   194 r.198                  2103.5       41.0454               
   195 r.199                       2             2               
   196 r.200                      -2         -1025               
   197 r.201                 32.6465       29.1099               
   198 r.202                    1024             2               
   199 r.203                   -1024         -1025               
   200 r.204                 2056.95       40.6289               
   201 r.205                       2             2               
   202 r.206                      -2         -1025               
   203 r.207                 3.53664        1.0773               
   204 r.208                    1024             2               
   205 r.209                   -1024         -1025               
   206 r.210                  2103.5       5.20906               
   207 r.211                       2             2               
   208 r.212                      -2         -1025               
   209 r.213                 2.45934       2.45934               
   210 r.214                    1024             2               
   211 r.215                   -1024         -1025               
   212 r.216                 2056.95       7.92989               
   213 r.217                       0             0               
   214 r.218                       0             0               
   215 r.219                       0             0               
   216 r.220                       0             0               
   217 r.221                       2             2               
   218 r.222                      -2         -1025               
   219 r.223                -954.717      -987.364               
   220 r.224                    1024             2               
   221 r.225                   -1024         -1025               
   222 r.226                  2148.2      -989.648               
   223 r.227                 69.2825       -953.09               
   224 r.228                -954.717      -979.296               
   225 r.229                   100.2       -953.09               
   226 r.230                  -923.8      -979.296               
   227 r.231                -932.755      -987.364               
   228 r.232                 91.2452      -989.648               
   229 r.233                -932.755      -987.364               
   230 r.234                 91.2452      -989.648               
   231 r.235                       2             2               
   232 r.236                      -2         -1025               
   233 r.237                 946.892        14.137               
   234 r.238                    1024             2               
   235 r.239                   -1024         -1025               
   236 r.240                 1956.75       20.9286               
   237 r.241                    1025             2               
   238 r.242                   -1025         -1025               
   239 r.243                    2048       -953.09               
   240 r.244                    1025             2               
   241 r.245                   -1025         -1025               
   242 r.246                    2048      -979.296               
   243 r.247                    1025             2               
   244 r.248                   -1025         -1025               
   245 r.249                 2011.36       29.1099               
   246 r.250                    1025             2               
   247 r.251                   -1025         -1025               
   248 r.252                 1956.75       40.6289               
   249 r.253                    1025             2               
   250 r.254                   -1025         -1025               
   251 r.255                 1981.18       2.45934               
   252 r.256                    1025             2               
   253 r.257                   -1025         -1025               
   254 r.258                 1956.75       7.92989               
   255 r.259                    1025             2               
   256 r.260                   -1025         -1025               
   257 r.261                    2048        36.636               
   258 r.262                    1025             2               
   259 r.263                   -1025         -1025               
   260 r.264                    2048        34.352               

   No. Column name       Activity     Lower bound   Upper bound
------ ------------    ------------- ------------- -------------
     1 tt                    92.1944             0               
     2 s_1_1        *              0             0             1 
     3 t_1_1                 44.7041             0               
     4 s_1_8        *              0             0             1 
     5 s_2_1        *              1             0             1 
     6 t_2_1                 44.7041             0               
     7 s_2_8        *              1             0             1 
     8 s_1_2        *              1             0             1 
     9 t_1_2                  36.636             0               
    10 s_1_7        *              1             0             1 
    11 s_2_2        *              0             0             1 
    12 t_2_2                 91.2452             0               
    13 s_2_7        *              0             0             1 
    14 s_1_3        *              1             0             1 
    15 t_1_3                 65.7459             0               
    16 s_2_3        *              0             0             1 
    17 t_2_3                 44.7041             0               
    18 s_1_4        *              1             0             1 
    19 t_1_4                 66.8232             0               
    20 s_2_4        *              0             0             1 
    21 t_2_4                 91.2452             0               
    22 s_1_5        *              1             0             1 
    23 t_1_5                 69.2825             0               
    24 s_2_5        *              0             0             1 
    25 t_2_5                   100.2             0               
    26 s_1_6        *              1             0             1 
    27 t_1_6                 91.2452             0               
    28 s_2_6        *              0             0             1 
    29 t_2_6                 91.2452             0               
    30 t_1_7                       0             0               
    31 t_2_7                       0             0               
    32 t_1_8                       0             0               
    33 t_2_8                       0             0               
    34 r_1_1_2      *              1             0             1 
    35 u_1_1_2      *              0             0             1 
    36 r_2_1_2      *              1             0             1 
    37 u_2_1_2      *              0             0             1 
    38 r_1_1_3      *              1             0             1 
    39 u_1_1_3      *              0             0             1 
    40 r_2_1_3      *              1             0             1 
    41 u_2_1_3      *              0             0             1 
    42 r_1_1_4      *              1             0             1 
    43 u_1_1_4      *              0             0             1 
    44 r_2_1_4      *              1             0             1 
    45 u_2_1_4      *              0             0             1 
    46 r_1_1_5      *              1             0             1 
    47 u_1_1_5      *              0             0             1 
    48 r_2_1_5      *              1             0             1 
    49 u_2_1_5      *              0             0             1 
    50 r_1_2_3      *              0             0             1 
    51 u_1_2_3      *              0             0             1 
    52 r_2_2_3      *              1             0             1 
    53 u_2_2_3      *              0             0             1 
    54 r_1_2_4      *              0             0             1 
    55 u_1_2_4      *              0             0             1 
    56 r_2_2_4      *              1             0             1 
    57 u_2_2_4      *              0             0             1 
    58 r_1_2_5      *              0             0             1 
    59 u_1_2_5      *              0             0             1 
    60 r_2_2_5      *              1             0             1 
    61 u_2_2_5      *              0             0             1 
    62 r_1_2_8      *              1             0             1 
    63 u_1_2_8      *              0             0             1 
    64 r_2_2_8      *              1             0             1 
    65 u_2_2_8      *              0             0             1 
    66 r_1_3_4      *              0             0             1 
    67 u_1_3_4      *              0             0             1 
    68 r_2_3_4      *              1             0             1 
    69 u_2_3_4      *              0             0             1 
    70 r_1_3_5      *              0             0             1 
    71 u_1_3_5      *              0             0             1 
    72 r_2_3_5      *              1             0             1 
    73 u_2_3_5      *              0             0             1 
    74 r_1_4_5      *              0             0             1 
    75 u_1_4_5      *              0             0             1 
    76 r_2_4_5      *              1             0             1 
    77 u_2_4_5      *              0             0             1 
    78 r_1_4_8      *              1             0             1 
    79 u_1_4_8      *              0             0             1 
    80 r_2_4_8      *              1             0             1 
    81 u_2_4_8      *              0             0             1 
    82 r_1_5_7      *              0             0             1 
    83 u_1_5_7      *              1             0             1 
    84 r_2_5_7      *              1             0             1 
    85 u_2_5_7      *              0             0             1 
    86 r_1_7_8      *              1             0             1 
    87 u_1_7_8      *              0             0             1 
    88 r_2_7_8      *              1             0             1 
    89 u_2_7_8      *              0             0             1 

Integer feasibility conditions:

KKT.PE: max.abs.err = 4.55e-13 on row 88
        max.rel.err = 1.07e-16 on row 191
        High quality

KKT.PB: max.abs.err = 1.14e-13 on row 22
        max.rel.err = 2.89e-15 on row 165
        High quality

End of output
